(set-logic QF_S)
(declare-fun I () String)
(declare-fun G () String)
(declare-fun A () String)
(declare-fun D () String)
(assert (= (str.++  "deacaaaddfdaadfaefabdaaaaceeecedfbcecccda" D "ecfdfdbfbbdeeece")  (str.++  "de" I A "aaa" G "aababeacbaeecffbbfefabbfaaacdaceecfdfdbfbbdeeece") ))
(assert (= (str.++  "cfdebfdfbedafebcaafeacbeaacfecfbcdecfeeefebeddccffafbdeacabadbedeebeaeedafebeffbcacdedfdfffbbac" "")  (str.++  "cfdebfdfbedafebcaafeacbeaacfecfbcdecfeeefebeddccffafbde" I "badbedeebeaeedafebeffbcacdedfdfffbbac") ))
(assert (= (str.++  "ccfaddadbfed" I "fbddeedccecdbbfecfffabffdbdcabeebdcfcafbaabbaadeecfecaeaafedcdadbefcdfdbceadeeda")  (str.++  "ccfaddadbfedacafbddeedccecdbbfecfffabffdbdcabeebdcfcafbaabbaadeecfecaeaafedcdadbefcdfdbceadeeda" "") ))
(assert (= (str.++  "ebccffebebfaabcb" I "eccfbecbebfceecfccfbdbffccbdbddaaceaeabfccdcbaaeabedffebdeeaefdcaeaacdcedadd")  (str.++  "ebccffebebfaabcb" I "eccfbecbebfceecfccfbdbffccbdbddaaceaeabfccdcbaaeabedffebdeeaefdcaeaacdcedadd") ))
(assert (= (str.++  "faaabffdddafddcfdcfcdeeaaedbfcbfeaffaeefcfbffebddeecdffccefaafcdbdcaacbdccfbacadbdadebcdcbecbbf" "")  (str.++  "faaabffdddafddcfdcfcdeeaaedbfcbfeaffaeefcfbffebddeecdffccefaafcdbdcaacbdccfb" I "dbdadebcdcbecbbf") ))
(assert (= (str.++  "ecfbacefafbcffdaeccccfdbfbedecdcedbadefecddabdaefefcfbadbdbebcafaeaaecaadcfdace" I "bfddafbdcceae")  (str.++  "ecfbacefafbcffdaeccccfdbfbedecdcedbadefecddabdaefefcfbadbdbebcafaeaaecaadcfdace" I "bfddafbdcceae") ))
(assert (= (str.++  "cbedbbdbbdedafdccdeccbfbcddadedbbacefaaecbbaeaceefdcebecbbdffbafaecbebeeefbdecfdfbeae" I "bededcd")  (str.++  "cbedbbdbbdedafdccdeccbfbcddadedbbacefaaecbbaeaceefdcebecbbdffbafaecbebeeefbdecfdfbeae" I "bededcd") ))
(assert (= (str.++  "bcdeadacdfcababbecabcffebcaceecfdfcecbbbfcbdacadccdaffdabdbcdeabbbfaedaebbdbfcebdccbaeddfcfbeff" "")  (str.++  "bcdeadacdfcababbecabcffebcaceecfdfcecbbbfcbd" I "dccdaffdabdbcdeabbbfaedaebbdbfcebdccbaeddfcfbeff") ))
(assert (= (str.++  "acbbcfedce" I "fcbeaeeebdaaafedadddecffdbdefbddfbaddbcefdefdebcdffedaffcdcbccaffdaaddecaacfaefbdb")  (str.++  "acbbcfedceacafcbeaeeebdaaafedadddecffdbdefbddfbaddbcefdefdebcdffedaffcdcbccaffdaaddecaacfaefbdb" "") ))
(assert (= (str.++  "ffafafdfcabcfaacacbdfdfedefdfaccadbeffbceafedbbabdadabaedfdebfcedbeecacbaaddaadaedbbeedacacdbeb" "")  (str.++  "ffafafdfcabcfa" I "cbdfdfedefdfaccadbeffbceafedbbabdadabaedfdebfcedbeecacbaaddaadaedbbeed" I "cdbeb") ))
(assert (= (str.++  "eedceeedffcfbcbdcafcccadeecaefacebacceacdfdfeedfffedb" I "bfcafbaedacebccaafffcffeafffdcfdfdbfecd")  (str.++  "eedceeedffcfbcbdcafcccadeecaefacebacceacdfdfeedfffedb" I "bfcafbaedacebccaafffcffeafffdcfdfdbfecd") ))
(assert (= (str.++  "fbccdbcffabdabbedbecbfaebcdedcdbefaafefaefabbdeccd" I "abdccfccdecaaeabdeebfcfbdbecdfadfbfffeeece")  (str.++  "fbccdbcffabdabbedbecbfaebcdedcdbefaafefaefabbdeccdacaabdccfccdecaaeabdeebfcfbdbecdfadfbfffeeece" "") ))
(assert (= (str.++  "bfefeaedadbcfebfaceddafdcbddbbfacbfdfebfedcccbbaeee" I "daeeffadddabbcfbdeacccaacafaccdabfefcbfdc")  (str.++  "bfefeaedadbcfebfaceddafdcbddbbfacbfdfebfedcccbbaeeeacadaeeffadddabbcfbdeacccaacafaccdabfefcbfdc" "") ))
(assert (= (str.++  "bdfccfeadebdafdaaaffcafcbcdeffacdcefeeaafbadfbfddabdbcdfbeffefbcafbacbfcfffcdbfecb" I "ecefddbaef")  (str.++  "bdfccfeadebdafdaaaffcafcbcdeffacdcefeeaafbadfbfddabdbcdfbeffefbcafbacbfcfffcdbfecb" I "ecefddbaef") ))
(assert (= (str.++  "ddecaceacbbdbcfbdaeacaebededbacbfabedaecfafadebddfdcdefcbbbbfdfdfdafddaeccdecbfdbcfcfdddcddfeed" "")  (str.++  "ddecaceacbbdbcfbdae" I "ebededbacbfabedaecfafadebddfdcdefcbbbbfdfdfdafddaeccdecbfdbcfcfdddcddfeed") ))
(assert (= (str.++  "ecfdfecabdeffbdabbdddfbfefaffeaabdbabfebcffaafadcfdddedbdcbafcdffdfccccfbfffdfa" I "dafecaecabdaf")  (str.++  "ecfdfecabdeffbdabbdddfbfefaffeaabdbabfebcffaafadcfdddedbdcbafcdffdfccccfbfffdfaacadafecaecabdaf" "") ))
(assert (= (str.++  "bfbdbaeacaafeacdadfdbcfacfebdcfbeceecaeeaaccabbafecbbefcdaffcfeefbbdadeedbcfbbccecfedbbefddacdd" "")  (str.++  "bfbdbae" I "afeacdadfdbcfacfebdcfbeceecaeeaaccabbafecbbefcdaffcfeefbbdadeedbcfbbccecfedbbefddacdd") ))
(assert (= (str.++  "cfadbcefebbbffdebdadaabeeecdcdadcfabebbbddeebeefbfcbfedacfaffbcaddc" I "afcfeafadcfefcebdbdfccdac")  (str.++  "cfadbcefebbbffdebdadaabeeecdcdadcfabebbbddeebeefbfcbfedacfaffbcaddcacaafcfeafadcfefcebdbdfccdac" "") ))
(assert (= (str.++  "fcfceffebdbbfdecdabacdcebfabadffcbccefbfbacaeefaeabafaefddfcfbedbadafbcbdcbdbffdbdadbebdfaddbcb" "")  (str.++  "fcfceffebdbbfdecdabacdcebfabadffcbccefbfb" I "eefaeabafaefddfcfbedbadafbcbdcbdbffdbdadbebdfaddbcb") ))
(assert (= (str.++  "caafcddcfbfbfbdeeaacccabfcadbabeaeeddaebdbbccdafdeeafacbaebebfaefdeebfccaadcbcaabdeafacadfcbbac" "")  (str.++  "caafcddcfbfbfbdeeaacccabfcadbabeaeeddaebdbbccdafdeeafacbaebebfaefdeebfccaadcbcaabdeaf" I "dfcbbac") ))
(assert (= (str.++  "fdeafabbcadfbebecfdcdefebebffbcddecabcefcacfaafdaddeceaadb" I "cfebfbcebbaacbfcdeacfefaebcddfdfab")  (str.++  "fdeafabbcadfbebecfdcdefebebffbcddecabcefcacfaafdaddeceaadb" I "cfebfbcebbaacbfcdeacfefaebcddfdfab") ))
(assert (= (str.++  "fadaebfaaceafddaaecceaddbeaefaeeaaffdbfbeabaddcbafebbfffaeadbebedeecdddedfafeffadfcbbfacaacbbbe" "")  (str.++  "fadaebfaaceafddaaecceaddbeaefaeeaaffdbfbeabaddcbafebbfffaeadbebedeecdddedfafeffadfcbbf" I "acbbbe") ))
(assert (= (str.++  "afefefccecabcccdbbfdddcaafabaedacecfccfdbfebceaeccfadedfcbaaacedddccefdadfecbeefeecfaff" I "cbdfd")  (str.++  "afefefccecabcccdbbfdddcaafabaedacecfccfdbfebceaeccfadedfcbaaacedddccefdadfecbeefeecfaff" I "cbdfd") ))
(assert (= (str.++  "fccaaaeffacbdecfaacbceedddefeedfbadecfcfcdefbdffdbbdebcabeebeeaccccbecfecfdbf" I "dddbeecdccbcdec")  (str.++  "fccaaaeffacbdecfaacbceedddefeedfbadecfcfcdefbdffdbbdebcabeebeeaccccbecfecfdbfacadddbeecdccbcdec" "") ))
(assert (= (str.++  "acbadddfdcfeafbdeeedfdffafdaeeeefa" I "eebcfdecabdeaffeabfcfdbdabfdfbabedbdfbefeedfaadbbeeecadbfd")  (str.++  "acbadddfdcfeafbdeeedfdffafdaeeeefaacaeebcfdecabdeaffeabfcfdbdabfdfbabedbdfbefeedfaadbbeeecadbfd" "") ))
(assert (= (str.++  "debbdfcadececbbcdcdddeecdcdcbeffabcadcddbeb" I "ceacedbebdfefcbafeeaefedbeddadcdafcfbdfbbccccbceb")  (str.++  "debbdfcadececbbcdcdddeecdcdcbeffabcadcddbebacaceacedbebdfefcbafeeaefedbeddadcdafcfbdfbbccccbceb" "") ))
(check-sat)
(get-model)
